
%EASY
grid_string = array2d(1..7, 1..7, ["4", ".", ".", ".", ".", ".", "4",
".", ".", "1", ".", "2", ".", ".",
".", ".", ".", ".", ".", ".", "3",
".", ".", ".", ".", ".", ".", ".",
"4", ".", ".", "2", ".", ".", ".",
".", ".", ".", ".", ".", ".", ".",
".", "1", ".", ".", "3", ".", "2"]);